5 5
4 38 3 79 0 44 2 76 1 2
4 73 2 35 3 1 0 46 1 60
1 63 3 95 2 92 4 45 0 57
2 37 4 7 0 16 3 50 1 14
3 97 1 6 2 61 0 21 4 10
-1
0 1 2 4 5
0 1 2 3 5
0 1 2 5
0 1 2 4 5
0 1 4 5
-2
58 181 290 292
78 169 137 221
91 172 551
45 48 128 153
101 284 306

394 10
17 8 23 2 14
10 21 9 19 4
15 6 22 12 3
20 11 7 1 18
5 16 0 24 13
